
Gurobi 13.0.2 (win64) logging started Thu Jul 23 17:57:52 2026

Set parameter LogFile to value "E:\codes\ExactEBRP\results\gf_gurobi_performance_recovery_round29\runs\stage4__V12_M2__c4_candidate__rep1__300s\external\native_logs\L2.0.1.1.1.0.0.0_lp.gurobi.log"
Gurobi Optimizer version 13.0.2 build v13.0.2rc1 (win64 - Windows 10.0 (19045.2))

CPU model: 12th Gen Intel(R) Core(TM) i7-12700KF, instruction set [SSE2|AVX|AVX2]
Thread count: 12 physical cores, 20 logical processors, using up to 1 threads

Non-default parameters:
TimeLimit  144.684713
MIPGap  0
MIPGapAbs  0
LogToConsole  0
Threads  1

Optimize a model with 11351 rows, 1034 columns and 113600 nonzeros (Min)
Model fingerprint: 0xacfcd9c2
Model has 13 linear objective coefficients
Coefficient statistics:
  Matrix range     [5e-05, 1e+05]
  Objective range  [5e-05, 1e+00]
  Bounds range     [4e-01, 3e+02]
  RHS range        [2e-01, 1e+06]

Presolve removed 441 rows and 50 columns
Presolve time: 0.04s
Presolved: 984 rows, 11887 columns, 112361 nonzeros

Iteration    Objective       Primal Inf.    Dual Inf.      Time
       0      handle free variables                          0s
     754    6.5052955e-01   0.000000e+00   0.000000e+00      0s

Solved in 754 iterations and 0.08 seconds (0.25 work units)
Optimal objective  6.505295458e-01

User-callback calls 901, time in user-callback 0.00 sec
